88 88
20 34
68 16
85 23
24 15
9 14
49 43
25 9
75 38
47 25
77 7
5 42
58 1
72 35
40 32
54 14
80 3
42 10
18 7
73 5
88 15
39 44
86 12
1 18
38 24
12 22
78 13
6 44
67 22
81 17
74 35
27 6
84 43
13 18
14 2
82 37
64 41
66 25
10 4
69 6
23 4
15 10
33 32
44 19
8 2
2 16
21 40
62 28
41 30
37 40
60 34
30 26
51 9
83 42
19 33
31 29
46 3
50 5
63 21
76 20
22 30
32 39
16 8
55 31
17 27
11 21
35 29
53 12
7 31
4 38
43 27
28 20
56 11
34 26
65 13
45 11
48 28
70 36
57 24
26 39
52 36
36 8
87 41
79 37
61 1
29 23
59 19
3 33
71 17
